Reading model...
...model read.
creating competitive generators file...
...competitive generators recorded.
Loading data...
.. day-ahead data with real-time VRE data read.
Compiling instance...
...instance created.
Creating Offer Mitigation (model will solve as dispatch if TRUE)...
NOTE: storage offers will not be mitigated
...storage offer mitigation file created
Converting model to MPEC...
...converted
NOTE: initial MIP solve with only storage competitive to get feasible solution
Solving...

Welcome to IBM(R) ILOG(R) CPLEX(R) Interactive Optimizer 12.10.0.0
  with Simplex, Mixed Integer & Barrier Optimizers
5725-A06 5725-A29 5724-Y48 5724-Y49 5724-Y54 5724-Y55 5655-Y21
Copyright IBM Corp. 1988, 2019.  All Rights Reserved.

Type 'help' for a list of available commands.
Type 'help' followed by a command name for more
information on commands.

CPLEX> Logfile 'cplex.log' closed.
Logfile 'C:\Users\wenmi\Desktop\competitiveMPEC\logs\tmpekumq_ib.cplex.log' open.
CPLEX> New value for parallel optimization mode: -1
CPLEX> New value for mixed integer optimality gap tolerance: 0.01
CPLEX> New value for integrality tolerance: 1e-09
CPLEX> New value for feasibility tolerance: 0.01
CPLEX> New value for deterministic time limit in ticks: 75000
CPLEX> Problem 'C:\Users\wenmi\Desktop\competitiveMPEC\logs\tmphjm5d2g5.pyomo.lp' read.
Read time = 0.14 sec. (14.72 ticks)
CPLEX> Problem name         : C:\Users\wenmi\Desktop\competitiveMPEC\logs\tmphjm5d2g5.pyomo.lp
Objective sense      : Maximize
Variables            :   53805  [Nneg: 1,  Box: 22000,  Free: 4464,
                                 Binary: 27340]
Objective nonzeros   :    8980
Linear constraints   :  123205  [Less: 41250,  Greater: 59096,  Equal: 22859]
  Nonzeros           :  291801
  RHS nonzeros       :   67485

Variables            : Min LB: -5000.000        Max UB: 1000000.       
Objective nonzeros   : Min   : 0.1750000        Max   : 772.4167       
Linear constraints   :
  Nonzeros           : Min   : 0.1750000        Max   : 1000000.       
  RHS nonzeros       : Min   : 0.1750000        Max   : 1000000.       
CPLEX> Version identifier: 12.10.0.0 | 2019-11-26 | 843d4de2ae
CPXPARAM_Parallel                                -1
CPXPARAM_Simplex_Tolerances_Feasibility          0.01
CPXPARAM_DetTimeLimit                            75000
CPXPARAM_MIP_Tolerances_MIPGap                   0.01
CPXPARAM_MIP_Tolerances_Integrality              1.0000000000000001e-09
Tried aggregator 3 times.
MIP Presolve eliminated 88742 rows and 19090 columns.
MIP Presolve added 3352 rows and 0 columns.
MIP Presolve modified 24843 coefficients.
Aggregator did 12964 substitutions.
Reduced MIP has 24851 rows, 21195 columns, and 70846 nonzeros.
Reduced MIP has 8390 binaries, 0 generals, 0 SOSs, and 0 indicators.
Presolve time = 0.16 sec. (171.30 ticks)
Probing fixed 385 vars, tightened 2891 bounds.
Probing time = 0.72 sec. (881.23 ticks)
Tried aggregator 2 times.
Detecting symmetries...
MIP Presolve eliminated 869 rows and 772 columns.
MIP Presolve modified 2243 coefficients.
Aggregator did 35 substitutions.
Reduced MIP has 23947 rows, 20388 columns, and 68231 nonzeros.
Reduced MIP has 8004 binaries, 0 generals, 0 SOSs, and 0 indicators.
Presolve time = 0.06 sec. (67.51 ticks)
Probing fixed 0 vars, tightened 3 bounds.
Probing time = 0.03 sec. (29.74 ticks)
Clique table members: 6480.
MIP emphasis: balance optimality and feasibility.
MIP search method: dynamic search.
Parallel mode: opportunistic, using up to 16 threads.
Root relaxation solution time = 0.26 sec. (255.86 ticks)

        Nodes                                         Cuts/
   Node  Left     Objective  IInf  Best Integer    Best Bound    ItCnt     Gap

      0     0     2505.9733   803                   2505.9733     3069         
      0     0     2292.9635   695                   Cuts: 689     3456         
      0     0     1982.0900   529                   Cuts: 443     3723         
      0     0     1893.2246   469                   Cuts: 203     3883         
      0     0     1245.5901   441                   Cuts: 154     4005         
      0     0     1243.5515   408                   Cuts: 134     4099         
      0     0     1243.5025   382                    Cuts: 69     4144         
      0     0     1242.6371   374                    Cuts: 59     4183         
      0     0     1240.3235   370                    Cuts: 46     4240         
      0     0     1224.0414   371                    Cuts: 93     4347         
      0     0     1213.3264   364                    Cuts: 70     4373         
      0     0     1181.2657   353                    Cuts: 46     4409         
      0     0     1058.7516   346                    Cuts: 37     4446         
      0     0     1058.7516   346                    Cuts: 22     4453         
      0     0     1058.7516   342                    Cuts: 16     4459         
      0    14     -302.8214   314                   1053.2861     4597         
Elapsed time = 8.70 sec. (7325.50 ticks, tree = 0.02 MB, solutions = 0)
    133    54  -6.53928e+07   376                   1053.2861     6328         
    316   132    -1371.3103   300                   1053.2861    15188         
    544   266     -422.6282   301                   1053.2861    27968         
    662   471     -146.1559   307                   1053.2861    38897         
    884   615      791.8854   269                   1053.2861    45223         
   1182   642      935.1566   295                   1053.2861    47292         
   1606   841    -1371.4112   201                   1053.2861    54019         
   2004  1119      791.8854   255                   1053.2861    60856         
   2245  1219  -1.31038e+08   410                   1053.2861    63440         
   3727  2563      791.8854   188                   1053.2861    90088         
Elapsed time = 19.03 sec. (10434.73 ticks, tree = 30.52 MB, solutions = 1)
*  4007  2248      integral     0    -1371.4112     1053.2861    87477  176.80%
*  4375  2421      integral     0       57.0969     1053.2861    90096     --- 
*  4671  2506      integral     0      791.8854     1053.2861    90156   33.01%
   5412  2139      985.9330   292      791.8854     1053.2861    96605   33.01%

Performing restart 1

Repeating presolve.
Tried aggregator 3 times.
MIP Presolve eliminated 5155 rows and 3777 columns.
MIP Presolve modified 11388 coefficients.
Aggregator did 361 substitutions.
Reduced MIP has 18431 rows, 16250 columns, and 51746 nonzeros.
Reduced MIP has 6179 binaries, 0 generals, 0 SOSs, and 0 indicators.
Presolve time = 0.08 sec. (84.37 ticks)
Tried aggregator 3 times.
MIP Presolve eliminated 4238 rows and 3281 columns.
MIP Presolve modified 8180 coefficients.
Aggregator did 25 substitutions.
Reduced MIP has 14168 rows, 12480 columns, and 39391 nonzeros.
Reduced MIP has 4651 binaries, 0 generals, 0 SOSs, and 0 indicators.
Presolve time = 0.03 sec. (44.52 ticks)
Tried aggregator 2 times.
MIP Presolve eliminated 355 rows and 281 columns.
MIP Presolve modified 3915 coefficients.
Aggregator did 5 substitutions.
Reduced MIP has 13808 rows, 12184 columns, and 38468 nonzeros.
Reduced MIP has 4531 binaries, 0 generals, 0 SOSs, and 0 indicators.
Presolve time = 0.02 sec. (26.84 ticks)
Tried aggregator 2 times.
MIP Presolve eliminated 2 rows and 2 columns.
MIP Presolve modified 3151 coefficients.
Aggregator did 1 substitutions.
Reduced MIP has 13805 rows, 12181 columns, and 38466 nonzeros.
Reduced MIP has 4530 binaries, 0 generals, 0 SOSs, and 0 indicators.
Presolve time = 0.05 sec. (41.79 ticks)
Represolve time = 0.70 sec. (674.82 ticks)
   5586     0     1058.7517    66      791.8854     Cuts: 260   106342   33.01%
   5586     0     1058.7517    40      791.8854     Cuts: 190   106378   33.01%
   5586     0     1058.7517    24      791.8854      Cuts: 99   106411   33.01%
   5586     0     1058.7517    20      791.8854      Cuts: 36   106417   33.01%
   5586     0     1058.7517    19      791.8854      Cuts: 30   106421   33.01%
   5586     0     1058.7517    19      791.8854      Cuts: 11   106422   33.01%
   5586     0     1058.7517    19      791.8854       Cuts: 9   106422   33.01%
   5586     3        cutoff            791.8854     1053.2861   106476   33.01%
   6079   129     1056.6058     7      791.8854     1053.2861   107381   33.01%
   6428   325        cutoff            791.8854     1053.2861   111549   33.01%
   6924   424     1002.5122    27      791.8854     1053.2861   113223   33.01%
   7447   667     1058.7517     6      791.8854     1053.2861   118626   33.01%
   7903   706     1058.7517     4      791.8854     1053.2861   119450   33.01%
   8307   888     1058.7517     6      791.8854     1053.2861   123836   33.01%
   8581  1003     1058.7517     3      791.8854     1053.2861   126309   33.01%
   8925  1073     1058.7517     5      791.8854     1053.2861   127757   33.01%
Elapsed time = 36.63 sec. (21608.26 ticks, tree = 5.02 MB, solutions = 4)
   9352  1220     1058.7517     5      791.8854     1053.2861   130913   33.01%
  10766   340    infeasible            791.8854     1053.2861   143730   33.01%
  12025   940    infeasible            791.8854     1053.2861   140228   33.01%
  13037   118     1056.6058     6      791.8854     1053.2861   147392   33.01%
  13496   196      998.0007     5      791.8854     1053.2861   156599   33.01%
  13942   286    infeasible            791.8854     1053.2861   161796   33.01%
  14333   361     1040.5447     8      791.8854     1053.2861   168589   33.01%
  14795   382    infeasible            791.8854     1053.2861   169373   33.01%
  15295   653      846.9696    10      791.8854     1053.2861   184767   33.01%
  15808   473     1056.6058     4      791.8854     1053.2861   177141   33.01%
Elapsed time = 52.86 sec. (31162.68 ticks, tree = 1.93 MB, solutions = 4)
  16255   846        cutoff            791.8854     1053.2861   193739   33.01%
  16595  1090      832.5322     9      791.8854     1053.2861   209589   33.01%
  17054   885     1050.2442     6      791.8854     1053.2861   194382   33.01%
  17576   845     1048.1173     7      791.8854     1053.2861   196169   33.01%
  17952   826     1056.6058    12      791.8854     1053.2861   194247   33.01%
  18357  1220     1026.5370    12      791.8854     1053.2861   215569   33.01%
  18802  1608        cutoff            791.8854     1053.2861   228856   33.01%
  19193  1277      997.5565     7      791.8854     1053.2861   217992   33.01%
  19605  1260    infeasible            791.8854     1053.2861   217221   33.01%
  20009  1841    infeasible            791.8854     1053.2861   236888   33.01%
Elapsed time = 64.86 sec. (40742.52 ticks, tree = 9.22 MB, solutions = 4)
  20428  1853      895.6583     5      791.8854     1053.2861   236582   33.01%
  20910  2230      981.7856     6      791.8854     1053.2861   244055   33.01%
  21628  2560     1010.2258     7      791.8854     1053.2861   257777   33.01%
  22246  2660        cutoff            791.8854     1053.2861   258338   33.01%
  22928  2822     1042.6683     9      791.8854     1053.2861   261069   33.01%
  23766  2934      980.2203     7      791.8854     1053.2861   261453   33.01%
  24723  4149     1009.7008     9      791.8854     1053.2861   276341   33.01%
  25823  3178     1042.6683     9      791.8854     1053.2861   262263   33.01%
  27014  7124     1043.1933     6      791.8854     1052.9463   294708   32.97%
  28028  3238        cutoff            791.8854     1052.9463   265554   32.97%
Elapsed time = 82.59 sec. (50307.26 ticks, tree = 18.90 MB, solutions = 4)
  29230  3641      995.4350     9      791.8854     1052.9463   271684   32.97%
  30330  6817     1017.8468     8      791.8854     1052.9463   291741   32.97%
  31199  4772     1043.1933     8      791.8854     1052.9463   280996   32.97%
  32117  7404      981.7856     8      791.8854     1052.1957   298250   32.87%
  33124  5786      981.7856     9      791.8854     1052.1957   287125   32.87%
  33980  7315     1041.8150     7      791.8854     1051.6707   296408   32.81%
  35279  6937      981.2605     9      791.8854     1051.6707   292521   32.81%
  36000  5199     1009.7008     9      791.8854     1051.6707   283149   32.81%
  36795  8411     1010.2258     9      791.8854     1050.2442   306265   32.63%
  37959  9192      933.5633    10      791.8854     1043.1933   309876   31.74%
Elapsed time = 93.53 sec. (59857.26 ticks, tree = 60.76 MB, solutions = 4)
  38720  8728    infeasible            791.8854     1043.1933   307554   31.74%
  39203  9959     1037.7163    15      791.8854     1043.1933   315222   31.74%
  39637 11100     1032.0675     7      791.8854     1043.1933   323365   31.74%
  39913 11119     1038.7212     7      791.8854     1043.1933   323971   31.74%
  40707 11186        cutoff            791.8854     1043.1933   324321   31.74%
  41454 11606     1041.8150     8      791.8854     1042.1685   327245   31.61%
  41914 12071     1041.8150     8      791.8854     1042.1685   331318   31.61%
  42384 12067      925.3422    20      791.8854     1042.1685   331187   31.61%
  42920 12342     1031.9666    10      791.8854     1042.1685   334306   31.61%
  43621 13072      834.0286     8      791.8854     1042.0676   340667   31.59%
Elapsed time = 99.06 sec. (69432.96 ticks, tree = 87.76 MB, solutions = 4)
  44048 13547      857.1888     7      791.8854     1042.0676   346209   31.59%
  44387 13883     1027.6890     7      791.8854     1042.0676   349699   31.59%
  44708 14064      841.1725     7      791.8854     1042.0676   351538   31.59%
  44960 14086     1021.4283    11      791.8854     1041.9159   352044   31.57%
  45136 14249        cutoff            791.8854     1041.9159   354338   31.57%

GUB cover cuts applied:  1
Clique cuts applied:  1
Cover cuts applied:  11
Implied bound cuts applied:  77
Flow cuts applied:  58
Mixed integer rounding cuts applied:  5
Zero-half cuts applied:  1
Gomory fractional cuts applied:  44

Root node processing (before b&c):
  Real time             =    8.27 sec. (7286.07 ticks)
Parallel b&c, 16 threads:
  Real time             =   90.97 sec. (67724.61 ticks)
  Sync time (average)   =    0.90 sec.
  Wait time (average)   =    0.02 sec.
                          ------------
Total (root+branch&cut) =   99.23 sec. (75010.68 ticks)

Solution pool: 4 solutions saved.

MIP - Deterministic time limit exceeded, integer feasible:  Objective =  7.9188537665e+02
Current MIP best bound =  1.0419158732e+03 (gap = 250.03, 31.57%)
Solution time =   99.25 sec.  Iterations = 372743  Nodes = 45191 (15920)
Deterministic time = 75010.83 ticks  (755.78 ticks/sec)

CPLEX> Incumbent solution written to file 'C:\Users\wenmi\Desktop\competitiveMPEC\logs\tmpxihs9rw6.cplex.sol'.
CPLEX> NOTE: no warmstart specified for MIP iteration, default behavior is true
NOTE: resolving with all competitive generators using storage-only solution to warmstart
Solving...

Welcome to IBM(R) ILOG(R) CPLEX(R) Interactive Optimizer 12.10.0.0
  with Simplex, Mixed Integer & Barrier Optimizers
5725-A06 5725-A29 5724-Y48 5724-Y49 5724-Y54 5724-Y55 5655-Y21
Copyright IBM Corp. 1988, 2019.  All Rights Reserved.

Type 'help' for a list of available commands.
Type 'help' followed by a command name for more
information on commands.

CPLEX> Logfile 'cplex.log' closed.
Logfile 'C:\Users\wenmi\Desktop\competitiveMPEC\logs\tmpm9v7qm0l.cplex.log' open.
CPLEX> New value for parallel optimization mode: -1
CPLEX> New value for mixed integer optimality gap tolerance: 0.01
CPLEX> New value for integrality tolerance: 1e-09
CPLEX> New value for feasibility tolerance: 0.01
CPLEX> New value for deterministic time limit in ticks: 75000
CPLEX> Problem 'C:\Users\wenmi\Desktop\competitiveMPEC\logs\tmpzfrh5vnm.pyomo.lp' read.
Read time = 0.14 sec. (14.74 ticks)
CPLEX> MIP start file 'C:\Users\wenmi\Desktop\competitiveMPEC\logs\tmp2vhsh_ct.cplex.mst' read.
CPLEX> Problem name         : C:\Users\wenmi\Desktop\competitiveMPEC\logs\tmpzfrh5vnm.pyomo.lp
Objective sense      : Maximize
Variables            :   54525  [Nneg: 1,  Box: 22720,  Free: 4464,
                                 Binary: 27340]
Objective nonzeros   :    9676
Linear constraints   :  123205  [Less: 41250,  Greater: 59096,  Equal: 22859]
  Nonzeros           :  291801
  RHS nonzeros       :   67485

Variables            : Min LB: -5000.000        Max UB: 1000000.       
Objective nonzeros   : Min   : 0.1750000        Max   : 731.8583       
Linear constraints   :
  Nonzeros           : Min   : 0.1750000        Max   : 1000000.       
  RHS nonzeros       : Min   : 0.1750000        Max   : 1000000.       
CPLEX> Version identifier: 12.10.0.0 | 2019-11-26 | 843d4de2ae
CPXPARAM_Parallel                                -1
CPXPARAM_Simplex_Tolerances_Feasibility          0.01
CPXPARAM_DetTimeLimit                            75000
CPXPARAM_MIP_Tolerances_MIPGap                   0.01
CPXPARAM_MIP_Tolerances_Integrality              1.0000000000000001e-09
Warning:  No solution found from 1 MIP starts.
Retaining values of one MIP start for possible repair.
Tried aggregator 3 times.
MIP Presolve eliminated 88742 rows and 19810 columns.
MIP Presolve added 3352 rows and 0 columns.
MIP Presolve modified 24843 coefficients.
Aggregator did 12964 substitutions.
Reduced MIP has 24851 rows, 21195 columns, and 70846 nonzeros.
Reduced MIP has 8390 binaries, 0 generals, 0 SOSs, and 0 indicators.
Presolve time = 0.16 sec. (171.66 ticks)
Probing fixed 385 vars, tightened 2891 bounds.
Probing time = 0.74 sec. (881.23 ticks)
Tried aggregator 2 times.
Detecting symmetries...
MIP Presolve eliminated 869 rows and 772 columns.
MIP Presolve modified 2243 coefficients.
Aggregator did 35 substitutions.
Reduced MIP has 23947 rows, 20388 columns, and 68231 nonzeros.
Reduced MIP has 8004 binaries, 0 generals, 0 SOSs, and 0 indicators.
Presolve time = 0.06 sec. (67.51 ticks)
Probing fixed 0 vars, tightened 3 bounds.
Probing time = 0.03 sec. (29.74 ticks)
Clique table members: 6480.
MIP emphasis: balance optimality and feasibility.
MIP search method: dynamic search.
Parallel mode: opportunistic, using up to 16 threads.
Root relaxation solution time = 0.27 sec. (255.91 ticks)

        Nodes                                         Cuts/
   Node  Left     Objective  IInf  Best Integer    Best Bound    ItCnt     Gap

      0     0    60579.1377   874                  60579.1377     3078         
      0     0    59210.3341   659                   Cuts: 768     3612         
      0     0    58679.1706   576                   Cuts: 422     3828         
      0     0    58614.0010   522                   Cuts: 247     3979         
      0     0    58578.7130   486                   Cuts: 146     4070         
      0     0    57948.5397   465                   Cuts: 121     4298         
      0     0    57837.5984   453                   Cuts: 103     4378         
      0     0    57664.6999   451                   Cuts: 127     4460         
      0     0    57659.3361   446                    Cuts: 70     4507         
      0     0    57659.3361   434                    Cuts: 70     4583         
      0     0    57659.3361   432                    Cuts: 51     4612         
      0     0    57659.3361   436                    Cuts: 37     4634         
Repair heuristic found nothing.
      0     7    infeasible                        57461.6124     4820         
Elapsed time = 8.66 sec. (7601.46 ticks, tree = 0.02 MB, solutions = 0)
    173    39    26166.3283   402                  48098.0570     8952         
    399   105    28739.5991   352                  43988.6698    15043         
    561   216    28443.0673   365                  43988.6698    20259         
    814   485    29482.2277   367                  43988.6698    27539         
   1109   561    23159.5224   372                  43988.6698    32512         
   1433   947    17093.1655   279                  43988.6698    36623         
   1799   936    11310.7978   276                  43988.6698    36609         
   2268  1229    21290.9740   266                  43988.6698    37628         
   2801  1758    15146.3313   362                  43988.6698    38447         
   4995  4304    14058.5195   298                  43988.6698    43193         
Elapsed time = 20.38 sec. (10707.81 ticks, tree = 38.67 MB, solutions = 0)
*  5219  4020      integral     0    18748.1220    43988.6698    42676  134.63%
   6547  1961    27599.2493   327    18748.1220    43988.6698    54367  134.63%

Performing restart 1

Repeating presolve.
Tried aggregator 3 times.
MIP Presolve eliminated 854 rows and 763 columns.
MIP Presolve modified 6912 coefficients.
Aggregator did 172 substitutions.
Reduced MIP has 22921 rows, 19453 columns, and 62570 nonzeros.
Reduced MIP has 7629 binaries, 0 generals, 0 SOSs, and 0 indicators.
Presolve time = 0.05 sec. (63.38 ticks)
Tried aggregator 2 times.
MIP Presolve eliminated 384 rows and 316 columns.
MIP Presolve modified 480 coefficients.
Aggregator did 14 substitutions.
Reduced MIP has 22523 rows, 19123 columns, and 61436 nonzeros.
Reduced MIP has 7471 binaries, 0 generals, 0 SOSs, and 0 indicators.
Presolve time = 0.05 sec. (42.30 ticks)
Tried aggregator 2 times.
MIP Presolve eliminated 48 rows and 48 columns.
MIP Presolve modified 287 coefficients.
Aggregator did 12 substitutions.
Reduced MIP has 22463 rows, 19063 columns, and 61256 nonzeros.
Reduced MIP has 7447 binaries, 0 generals, 0 SOSs, and 0 indicators.
Presolve time = 0.06 sec. (61.77 ticks)
Represolve time = 1.33 sec. (1208.96 ticks)
   6726     0    33553.1260   483    18748.1220     Cuts: 757    64260   78.97%
   6726     0    33553.1260   297    18748.1220    Cuts: 1575    64607   78.97%
   6726     0    33553.0728   192    18748.1220    Cuts: 1176    64886   78.97%
   6726     0    33552.7828   173    18748.1220     Cuts: 209    64945   78.97%
   6726     0    33552.7244   156    18748.1220     Cuts: 142    64985   78.97%
   6726     0    33533.1501   156    18748.1220     Cuts: 143    65011   78.86%
   6726     0    33506.2298   154    18748.1220     Cuts: 129    65030   78.72%
   6726     0    33475.9233   155    18748.1220     Cuts: 137    65054   78.56%
   6726     0    33428.4638   164    18748.1220     Cuts: 139    65069   78.30%
   6726     0    33428.4638   170    18748.1220     Cuts: 116    65079   78.30%
   6726     0    33418.9428   159    18748.1220     Cuts: 164    65111   78.25%
   6726     0    33407.7905   164    18748.1220     Cuts: 193    65142   78.19%
   6726     0    33406.3383   162    18748.1220     Cuts: 211    65171   78.18%
   6726     0    33406.3383   163    18748.1220     Cuts: 237    65183   78.18%
   6726     0    33405.5793   161    18748.1220     Cuts: 218    65194   78.18%
   6726     0    33405.5793   166    18748.1220     Cuts: 233    65198   78.18%
   6726    11        cutoff          18748.1220    25927.5129    65401   38.29%
   7428    64    22700.2884   100    18748.1220    24570.6685    66315   31.06%
   7748   789    23894.7859   131    18748.1220    24570.6685    71447   31.06%
   8768  1004    23538.0265    91    18748.1220    24481.0498    73700   30.58%
   9883  1167        cutoff          22561.9145    24454.7676    81936    8.39%
  10934  1124    22589.7871    73    22561.9145    24412.7097    81098    8.20%
* 11752  1508      integral     0    22603.9437    24412.7097    84689    8.00%
  12199  1297    23505.7784    99    22603.9437    24232.4776    83230    7.20%
  13603  1453        cutoff          22603.9437    24232.4776    84310    7.20%
  14759  1740    23273.3466    92    22603.9437    24232.4776    86059    7.20%
Elapsed time = 56.83 sec. (25865.70 ticks, tree = 15.37 MB, solutions = 7)
  15674  1984    23192.1528    87    22603.9437    24024.2273    92465    6.28%
  16343  1683    22607.0241    69    22603.9437    24024.2273    89390    6.28%
  17119  1547    23385.2440    97    22603.9437    24024.2273    88906    6.28%
  17985  2267    23246.0704    86    22603.9437    24021.1267    95298    6.27%
  19040  2318    23226.4582    94    22603.9437    23895.3790    95613    5.71%
  20081  1857    22604.1963    81    22603.9437    23895.3790    90585    5.71%
  20923  2156    23076.8829    92    22603.9437    23886.7096    93802    5.67%
  21548  2487    23154.0342    84    22603.9437    23565.3707    99456    4.25%
  22129  2902    23538.0265    90    22603.9437    23538.9110   102683    4.14%
  23014  4882        cutoff          22603.9437    23538.9110   121107    4.14%
Elapsed time = 79.95 sec. (35415.45 ticks, tree = 51.68 MB, solutions = 7)
  23851  3553        cutoff          22603.9437    23538.9110   111207    4.14%
  24876  6146    23432.9460    84    22603.9437    23538.0265   132202    4.13%
  25899  3509    23205.2490   106    22603.9437    23538.0265   109777    4.13%
  27138  4556    23509.7517    80    22603.9437    23538.0265   118612    4.13%
  28158  4314        cutoff          22603.9437    23538.0265   117035    4.13%
  29177  7817    23531.5969    89    22603.9437    23538.0265   151113    4.13%
  30344  6134    22988.6234    63    22603.9437    23538.0265   134690    4.13%
  31734  6993    23442.2609    90    22603.9437    23538.0265   142033    4.13%
  33070  7162    23234.4083    88    22603.9437    23538.0265   142923    4.13%
  34471  8324    22815.5998    88    22603.9437    23538.0265   157816    4.13%
Elapsed time = 113.56 sec. (44961.23 ticks, tree = 90.86 MB, solutions = 7)
  35910  7302    23442.2609    85    22603.9437    23538.0265   146540    4.13%
  37354  9371    23401.7119    93    22603.9437    23538.0265   178178    4.13%
  38850  8195    23217.1348    91    22603.9437    23538.0265   157697    4.13%
  40327  8909    23433.6318   114    22603.9437    23538.0265   168017    4.13%
  41659  9905    23024.2758    86    22603.9437    23538.0265   185660    4.13%
  42942 10647    22746.9991    81    22603.9437    23538.0265   202831    4.13%
  44151 12166    22821.4478    63    22603.9437    23538.0265   232532    4.13%
  45099 11689    23415.4023    88    22603.9437    23537.0274   223350    4.13%
  46112 12241    23417.7437    92    22603.9437    23533.9003   234193    4.11%
  47206 13579    23072.4976   126    22603.9437    23533.9003   256484    4.11%
Elapsed time = 140.01 sec. (54504.71 ticks, tree = 148.93 MB, solutions = 7)
  47932 11516    23132.0043   105    22603.9437    23533.9003   221305    4.11%
  48451 12192    23491.3174    80    22603.9437    23531.5969   233011    4.10%
  48787 12882    23045.7362    93    22603.9437    23516.3505   243790    4.04%
  49331 14172    23326.1414   101    22603.9437    23516.3505   264921    4.04%
  49985 15537    23035.1849    90    22603.9437    23516.3505   305100    4.04%
  50721 15556    23045.0859   132    22603.9437    23516.3505   306176    4.04%
  51406 13200    22711.5330    96    22603.9437    23516.3505   249311    4.04%
  51939 14709    22934.0930   103    22603.9437    23516.3505   281526    4.04%
  52554 14728    infeasible          22603.9437    23516.3505   282404    4.04%
  53066 14940    22892.5919   110    22603.9437    23516.3505   291776    4.04%
Elapsed time = 152.33 sec. (64053.30 ticks, tree = 163.44 MB, solutions = 7)
  53333 15455    23367.4198    90    22603.9437    23516.3505   300192    4.04%
  53419 15488    23330.9589   102    22603.9437    23516.3505   302610    4.04%

Performing restart 2

Repeating presolve.
Tried aggregator 3 times.
MIP Presolve eliminated 819 rows and 706 columns.
MIP Presolve modified 10657 coefficients.
Aggregator did 81 substitutions.
Reduced MIP has 21563 rows, 18276 columns, and 59243 nonzeros.
Reduced MIP has 7179 binaries, 0 generals, 0 SOSs, and 0 indicators.
Presolve time = 0.08 sec. (68.27 ticks)
Tried aggregator 2 times.
MIP Presolve eliminated 147 rows and 108 columns.
MIP Presolve modified 11929 coefficients.
Aggregator did 1 substitutions.
Reduced MIP has 21415 rows, 18167 columns, and 58866 nonzeros.
Reduced MIP has 7133 binaries, 0 generals, 0 SOSs, and 0 indicators.
Presolve time = 0.06 sec. (52.07 ticks)
Represolve time = 0.49 sec. (326.43 ticks)
  53472     0    33350.2034   166    22603.9437     Cuts: 929   371333    4.00%
  53472     0    33335.5500   120    22603.9437     Cuts: 183   371429    4.00%
  53472     0    31484.0441   118    22603.9437      Cuts: 73   371497    4.00%
  53472     0    31334.6718   117    22603.9437      Cuts: 96   371540    4.00%
  53472     0    31303.5799   111    22603.9437      Cuts: 55   371567    4.00%
  53472     0    31288.1759   114    22603.9437      Cuts: 32   371582    4.00%
  53472     0    31274.1672   114    22603.9437      Cuts: 30   371601    4.00%
  53472     0    31274.1672   115    22603.9437      Cuts: 15   371616    4.00%
  53472     0    31271.8513   113    22603.9437      Cuts: 18   371626    4.00%
  53472     0    31271.2305   117    22603.9437      Cuts: 18   371637    4.00%

Repeating presolve.
Tried aggregator 3 times.
MIP Presolve eliminated 388 rows and 297 columns.
MIP Presolve modified 6707 coefficients.
Aggregator did 14 substitutions.
Reduced MIP has 21013 rows, 17856 columns, and 59510 nonzeros.
Reduced MIP has 6994 binaries, 0 generals, 0 SOSs, and 0 indicators.
Presolve time = 0.06 sec. (58.59 ticks)
Tried aggregator 1 time.
MIP Presolve eliminated 1017 rows and 814 columns.
MIP Presolve modified 10764 coefficients.
Reduced MIP has 19996 rows, 17042 columns, and 56622 nonzeros.
Reduced MIP has 6652 binaries, 0 generals, 0 SOSs, and 0 indicators.
Presolve time = 0.03 sec. (27.59 ticks)
Tried aggregator 1 time.
MIP Presolve eliminated 18 rows and 15 columns.
MIP Presolve modified 8231 coefficients.
Reduced MIP has 19978 rows, 17027 columns, and 56558 nonzeros.
Reduced MIP has 6646 binaries, 0 generals, 0 SOSs, and 0 indicators.
Presolve time = 0.03 sec. (41.68 ticks)
Represolve time = 0.55 sec. (428.02 ticks)
  53472     0    30961.4924   212    22603.9437    Cuts: 1438   377684    4.00%
  53472     0    30957.8456   152    22603.9437     Cuts: 273   377817    4.00%
  53472     0    30955.9367   137    22603.9437     Cuts: 110   377872    4.00%
  53472     0    30939.8368   138    22603.9437      Cuts: 56   377904    4.00%
  53472     0    30939.8368   135    22603.9437      Cuts: 65   377930    4.00%
  53472     0    30939.7136   133    22603.9437      Cuts: 41   377976    4.00%
  53472     0    30938.6186   131    22603.9437      Cuts: 32   378005    4.00%
  53472     0    30912.4316   137    22603.9437      Cuts: 45   378061    4.00%
  53472     0    30899.0107   133    22603.9437      Cuts: 69   378092    4.00%
  53472     2        cutoff          22603.9437    23508.8672   378170    4.00%
  54019    61    22885.0135    38    22603.9437    23508.8672   379414    4.00%

Clique cuts applied:  18
Cover cuts applied:  27
Implied bound cuts applied:  12
Flow cuts applied:  197
Mixed integer rounding cuts applied:  31
Zero-half cuts applied:  3
Gomory fractional cuts applied:  122

Root node processing (before b&c):
  Real time             =    8.33 sec. (7587.07 ticks)
Parallel b&c, 16 threads:
  Real time             =  155.33 sec. (67424.39 ticks)
  Sync time (average)   =    1.04 sec.
  Wait time (average)   =    0.14 sec.
                          ------------
Total (root+branch&cut) =  163.66 sec. (75011.46 ticks)

Solution pool: 7 solutions saved.

MIP - Deterministic time limit exceeded, integer feasible:  Objective =  2.2603943726e+04
Current MIP best bound =  2.3508867225e+04 (gap = 904.923, 4.00%)
Solution time =  163.67 sec.  Iterations = 383843  Nodes = 54022 (361)
Deterministic time = 75011.62 ticks  (458.30 ticks/sec)

CPLEX> Incumbent solution written to file 'C:\Users\wenmi\Desktop\competitiveMPEC\logs\tmph3no7ks4.cplex.sol'.
CPLEX> Exporting results... 
